
;this file is automatically generated: Thu Jan 02 16:54:47 GMT 2020

;declarations generated

(declare-fun oclExcludes ( Int Int) Bool)
(declare-fun Cardinality ( Int) Int)
(declare-fun type_d7135808_6984_4b64_80e2_ef42fb449411_Class10 ( Int) Bool)
(declare-fun oclSelect ( Int Bool) Int)
(declare-fun Enum0 ( Int) Int)
(declare-fun Enum1 ( Int) Int)
(declare-fun Enum2 ( Int) Int)
(declare-fun class10_Class10BoolAttr0 ( Int) Bool)
(declare-fun container_ ( Int) Int)
(declare-fun obj_4a0d735c_aee4_4a54_9367_ffa69db41cf0 ( Int) Int)
(declare-fun oclIncludes ( Int Int) Bool)
(declare-fun ObjAt ( Int Int) Int)

;formula(s) generated
(assert (! (forall ((v Int)) (=> ( type_d7135808_6984_4b64_80e2_ef42fb449411_Class10 v )  (not ( class10_Class10BoolAttr0 ( obj_4a0d735c_aee4_4a54_9367_ffa69db41cf0 v )  )  ))):named l0))
(assert (exists ((o Int)) ( type_d7135808_6984_4b64_80e2_ef42fb449411_Class10 ( obj_4a0d735c_aee4_4a54_9367_ffa69db41cf0 o )  ) ))

 ;end of formula 